n = 12;
m = 4;

G = 
[[0.   0.   0.29 0.   0.38 0.   0.   0.39 0.   0.   0.17 0.19]
 [0.   0.   0.01 1.   0.89 0.   0.   0.   0.   0.18 0.87 0.67]
 [0.29 0.01 0.   0.98 0.92 0.52 0.   0.73 0.63 0.   0.54 0.  ]
 [0.   1.   0.98 0.   0.   0.03 0.53 0.15 0.   0.   0.83 0.19]
 [0.38 0.89 0.92 0.   0.   0.48 0.15 0.   0.88 0.   0.16 0.82]
 [0.   0.   0.52 0.03 0.48 0.   0.   0.31 0.25 0.   0.   0.  ]
 [0.   0.   0.   0.53 0.15 0.   0.   0.3  0.   0.   0.88 0.29]
 [0.39 0.   0.73 0.15 0.   0.31 0.3  0.   0.   0.67 0.93 0.  ]
 [0.   0.   0.63 0.   0.88 0.25 0.   0.   0.   0.02 0.99 0.  ]
 [0.   0.18 0.   0.   0.   0.   0.   0.67 0.02 0.   0.48 0.42]
 [0.17 0.87 0.54 0.83 0.16 0.   0.88 0.93 0.99 0.48 0.   0.99]
 [0.19 0.67 0.   0.19 0.82 0.   0.29 0.   0.   0.42 0.99 0.  ]];

H = 
[[0.   0.   0.73 0.  ]
 [0.   0.   0.1  0.22]
 [0.73 0.1  0.   0.81]
 [0.   0.22 0.81 0.  ]];
